VRPTWMS/instances/mip/fuel/Comparison/N4-C_DV100-C_SV30_F6_7_No_1.lp
\ N4-C_DV100-C_SV30_F6_7

Minimize
  145600.0 x_d0_c1 + 145600.0 z_d0_c1 + 136000.0 x_d0_c2 + 136000.0 z_d0_c2 + 299700.0 x_d0_c3 + 299700.0 z_d0_c3 + 90000.0 x_d0_c4 + 90000.0 z_d0_c4 + 230900.0 x_c1_c2 + 230900.0 x_c2_c1 + 230900.0 z_c1_c2 + 230900.0 z_c2_c1 + 354700.0 x_c1_c3 + 354700.0 x_c3_c1 + 354700.0 z_c1_c3 + 354700.0 z_c3_c1 + 148700.0 x_c1_c4 + 148700.0 x_c4_c1 + 148700.0 z_c1_c4 + 148700.0 z_c4_c1 + 167600.0 x_c2_c3 + 167600.0 x_c3_c2 + 167600.0 z_c2_c3 + 167600.0 z_c3_c2 + 82500.0 x_c2_c4 + 82500.0 x_c4_c2 + 82500.0 z_c2_c4 + 82500.0 z_c4_c2 + 222000.0 x_c3_c4 + 222000.0 x_c4_c3 + 222000.0 z_c3_c4 + 222000.0 z_c4_c3 + 145600.0 x_c1_dN + 145600.0 z_c1_dN + 136000.0 x_c2_dN + 136000.0 z_c2_dN + 299700.0 x_c3_dN + 299700.0 z_c3_dN + 90000.0 x_c4_dN + 90000.0 z_c4_dN + 1.0E7 x_d0_c1 + 1.0E7 z_d0_c1 + 1.0E7 x_d0_c2 + 1.0E7 z_d0_c2 + 1.0E7 x_d0_c3 + 1.0E7 z_d0_c3 + 1.0E7 x_d0_c4 + 1.0E7 z_d0_c4
Subject To
  Successor_DV_c1: x_c1_c2 + x_c1_c3 + x_c1_c4 + x_c1_dN = 1
  Successor_DV_c2: x_c2_c1 + x_c2_c3 + x_c2_c4 + x_c2_dN = 1
  Successor_DV_c3: x_c3_c1 + x_c3_c2 + x_c3_c4 + x_c3_dN = 1
  Successor_DV_c4: x_c4_c1 + x_c4_c2 + x_c4_c3 + x_c4_dN = 1
  Successor_SV_c1: z_c1_c2 + z_c1_c3 + z_c1_c4 + z_c1_dN <= 1
  Successor_SV_c2: z_c2_c1 + z_c2_c3 + z_c2_c4 + z_c2_dN <= 1
  Successor_SV_c3: z_c3_c1 + z_c3_c2 + z_c3_c4 + z_c3_dN <= 1
  Successor_SV_c4: z_c4_c1 + z_c4_c2 + z_c4_c3 + z_c4_dN <= 1
  Flow_DV_c1: x_d0_c1 + x_c2_c1 + x_c3_c1 + x_c4_c1 - x_c1_dN - x_c1_c2 - x_c1_c3 - x_c1_c4 = 0
  Flow_DV_c2: x_d0_c2 + x_c1_c2 + x_c3_c2 + x_c4_c2 - x_c2_dN - x_c2_c1 - x_c2_c3 - x_c2_c4 = 0
  Flow_DV_c3: x_d0_c3 + x_c1_c3 + x_c2_c3 + x_c4_c3 - x_c3_dN - x_c3_c1 - x_c3_c2 - x_c3_c4 = 0
  Flow_DV_c4: x_d0_c4 + x_c1_c4 + x_c2_c4 + x_c3_c4 - x_c4_dN - x_c4_c1 - x_c4_c2 - x_c4_c3 = 0
  Flow_SV_c1: z_d0_c1 + z_c2_c1 + z_c3_c1 + z_c4_c1 - z_c1_dN - z_c1_c2 - z_c1_c3 - z_c1_c4 = 0
  Flow_SV_c2: z_d0_c2 + z_c1_c2 + z_c3_c2 + z_c4_c2 - z_c2_dN - z_c2_c1 - z_c2_c3 - z_c2_c4 = 0
  Flow_SV_c3: z_d0_c3 + z_c1_c3 + z_c2_c3 + z_c4_c3 - z_c3_dN - z_c3_c1 - z_c3_c2 - z_c3_c4 = 0
  Flow_SV_c4: z_d0_c4 + z_c1_c4 + z_c2_c4 + z_c3_c4 - z_c4_dN - z_c4_c1 - z_c4_c2 - z_c4_c3 = 0
  travelDV_d0_c1: tauD_d0 - tauD_c1 + 1036400.0 x_d0_c1 <= 1000000.0
  travelDV_d0_c2: tauD_d0 - tauD_c2 + 1034000.0 x_d0_c2 <= 1000000.0
  travelDV_d0_c3: tauD_d0 - tauD_c3 + 1074925.0 x_d0_c3 <= 1000000.0
  travelDV_d0_c4: tauD_d0 - tauD_c4 + 1022500.0 x_d0_c4 <= 1000000.0
  travelDV_c1_c2: tauD_c1 - tauD_c2 + 1087725.0 x_c1_c2 + 80000.0 p_1 <= 1000000.0
  travelDV_c1_c3: tauD_c1 - tauD_c3 + 1118675.0 x_c1_c3 + 80000.0 p_1 <= 1000000.0
  travelDV_c1_c4: tauD_c1 - tauD_c4 + 1067175.0 x_c1_c4 + 80000.0 p_1 <= 1000000.0
  travelDV_c2_c1: tauD_c2 - tauD_c1 + 1107725.0 x_c2_c1 + 80000.0 p_2 <= 1000000.0
  travelDV_c2_c3: tauD_c2 - tauD_c3 + 1091900.0 x_c2_c3 + 80000.0 p_2 <= 1000000.0
  travelDV_c2_c4: tauD_c2 - tauD_c4 + 1070625.0 x_c2_c4 + 80000.0 p_2 <= 1000000.0
  travelDV_c3_c1: tauD_c3 - tauD_c1 + 1148675.0 x_c3_c1 + 80000.0 p_3 <= 1000000.0
  travelDV_c3_c2: tauD_c3 - tauD_c2 + 1101900.0 x_c3_c2 + 80000.0 p_3 <= 1000000.0
  travelDV_c3_c4: tauD_c3 - tauD_c4 + 1115500.0 x_c3_c4 + 80000.0 p_3 <= 1000000.0
  travelDV_c4_c1: tauD_c4 - tauD_c1 + 1087175.0 x_c4_c1 + 80000.0 p_4 <= 1000000.0
  travelDV_c4_c2: tauD_c4 - tauD_c2 + 1070625.0 x_c4_c2 + 80000.0 p_4 <= 1000000.0
  travelDV_c4_c3: tauD_c4 - tauD_c3 + 1105500.0 x_c4_c3 + 80000.0 p_4 <= 1000000.0
  TravelSV_d0_c1: tauS_d0 - tauS_c1 + 1000000.0 z_d0_c1 <= 963600.0
  TravelSV_d0_c2: tauS_d0 - tauS_c2 + 1000000.0 z_d0_c2 <= 966000.0
  TravelSV_d0_c3: tauS_d0 - tauS_c3 + 1000000.0 z_d0_c3 <= 925075.0
  TravelSV_d0_c4: tauS_d0 - tauS_c4 + 1000000.0 z_d0_c4 <= 977500.0
  TravelSV_d0_dN: tauS_d0 - tauS_dN + 1000000.0 z_d0_dN <= 1000000.0
  TravelSV_c1_c2: tauS_c1 - tauS_c2 + 1000000.0 z_c1_c2 <= 862275.0
  TravelSV_c1_c3: tauS_c1 - tauS_c3 + 1000000.0 z_c1_c3 <= 831325.0
  TravelSV_c1_c4: tauS_c1 - tauS_c4 + 1000000.0 z_c1_c4 <= 882825.0
  TravelSV_c1_dN: tauS_c1 - tauS_dN + 1000000.0 z_c1_dN <= 883600.0
  TravelSV_c2_c1: tauS_c2 - tauS_c1 + 1000000.0 z_c2_c1 <= 862275.0
  TravelSV_c2_c3: tauS_c2 - tauS_c3 + 1000000.0 z_c2_c3 <= 878100.0
  TravelSV_c2_c4: tauS_c2 - tauS_c4 + 1000000.0 z_c2_c4 <= 899375.0
  TravelSV_c2_dN: tauS_c2 - tauS_dN + 1000000.0 z_c2_dN <= 886000.0
  TravelSV_c3_c1: tauS_c3 - tauS_c1 + 1000000.0 z_c3_c1 <= 831325.0
  TravelSV_c3_c2: tauS_c3 - tauS_c2 + 1000000.0 z_c3_c2 <= 878100.0
  TravelSV_c3_c4: tauS_c3 - tauS_c4 + 1000000.0 z_c3_c4 <= 864500.0
  TravelSV_c3_dN: tauS_c3 - tauS_dN + 1000000.0 z_c3_dN <= 845075.0
  TravelSV_c4_c1: tauS_c4 - tauS_c1 + 1000000.0 z_c4_c1 <= 882825.0
  TravelSV_c4_c2: tauS_c4 - tauS_c2 + 1000000.0 z_c4_c2 <= 899375.0
  TravelSV_c4_c3: tauS_c4 - tauS_c3 + 1000000.0 z_c4_c3 <= 864500.0
  TravelSV_c4_dN: tauS_c4 - tauS_dN + 1000000.0 z_c4_dN <= 897500.0
  time_window_c1_e: tauD_c1 + 80000.0 o_1 >= 500000.0
  time_window_c1_l: tauD_c1 + 80000.0 o_1 <= 650000.0
  time_window_c2_e: tauD_c2 + 80000.0 o_2 >= 500000.0
  time_window_c2_l: tauD_c2 + 80000.0 o_2 <= 650000.0
  time_window_c3_e: tauD_c3 + 80000.0 o_3 >= 100000.0
  time_window_c3_l: tauD_c3 + 80000.0 o_3 <= 250000.0
  time_window_c4_e: tauD_c4 + 80000.0 o_4 >= 0.0
  time_window_c4_l: tauD_c4 + 80000.0 o_4 <= 1000000.0
  SyncA_c1_c2_c2: 30000.0 o_1 + 1000000.0 x_c1_c2 - tauD_c2 - 57725.0 z_c1_c2 + [ tauS_c2 * z_c1_c2 ] <= 942275.0
  SyncA_c1_c2_c3: 30000.0 o_1 + 1000000.0 x_c1_c2 - tauD_c2 - 88675.0 z_c1_c3 + [ tauS_c3 * z_c1_c3 ] <= 942275.0
  SyncA_c1_c2_c4: 30000.0 o_1 + 1000000.0 x_c1_c2 - tauD_c2 - 37175.0 z_c1_c4 + [ tauS_c4 * z_c1_c4 ] <= 942275.0
  SyncA_c1_c2_dN: 30000.0 o_1 + 1000000.0 x_c1_c2 - tauD_c2 - 36400.0 z_c1_dN + [ tauS_dN * z_c1_dN ] <= 942275.0
  SyncA_c1_c3_c2: 30000.0 o_1 + 1000000.0 x_c1_c3 - tauD_c3 - 57725.0 z_c1_c2 + [ tauS_c2 * z_c1_c2 ] <= 911325.0
  SyncA_c1_c3_c3: 30000.0 o_1 + 1000000.0 x_c1_c3 - tauD_c3 - 88675.0 z_c1_c3 + [ tauS_c3 * z_c1_c3 ] <= 911325.0
  SyncA_c1_c3_c4: 30000.0 o_1 + 1000000.0 x_c1_c3 - tauD_c3 - 37175.0 z_c1_c4 + [ tauS_c4 * z_c1_c4 ] <= 911325.0
  SyncA_c1_c3_dN: 30000.0 o_1 + 1000000.0 x_c1_c3 - tauD_c3 - 36400.0 z_c1_dN + [ tauS_dN * z_c1_dN ] <= 911325.0
  SyncA_c1_c4_c2: 30000.0 o_1 + 1000000.0 x_c1_c4 - tauD_c4 - 57725.0 z_c1_c2 + [ tauS_c2 * z_c1_c2 ] <= 962825.0
  SyncA_c1_c4_c3: 30000.0 o_1 + 1000000.0 x_c1_c4 - tauD_c4 - 88675.0 z_c1_c3 + [ tauS_c3 * z_c1_c3 ] <= 962825.0
  SyncA_c1_c4_c4: 30000.0 o_1 + 1000000.0 x_c1_c4 - tauD_c4 - 37175.0 z_c1_c4 + [ tauS_c4 * z_c1_c4 ] <= 962825.0
  SyncA_c1_c4_dN: 30000.0 o_1 + 1000000.0 x_c1_c4 - tauD_c4 - 36400.0 z_c1_dN + [ tauS_dN * z_c1_dN ] <= 962825.0
  SyncA_c1_dN_c2: 30000.0 o_1 + 1000000.0 x_c1_dN - tauD_dN - 57725.0 z_c1_c2 + [ tauS_c2 * z_c1_c2 ] <= 963600.0
  SyncA_c1_dN_c3: 30000.0 o_1 + 1000000.0 x_c1_dN - tauD_dN - 88675.0 z_c1_c3 + [ tauS_c3 * z_c1_c3 ] <= 963600.0
  SyncA_c1_dN_c4: 30000.0 o_1 + 1000000.0 x_c1_dN - tauD_dN - 37175.0 z_c1_c4 + [ tauS_c4 * z_c1_c4 ] <= 963600.0
  SyncA_c1_dN_dN: 30000.0 o_1 + 1000000.0 x_c1_dN - tauD_dN - 36400.0 z_c1_dN + [ tauS_dN * z_c1_dN ] <= 963600.0
  SyncA_c2_c1_c1: 50000.0 o_2 + 1000000.0 x_c2_c1 - tauD_c1 - 57725.0 z_c2_c1 + [ tauS_c1 * z_c2_c1 ] <= 942275.0
  SyncA_c2_c1_c3: 50000.0 o_2 + 1000000.0 x_c2_c1 - tauD_c1 - 41900.0 z_c2_c3 + [ tauS_c3 * z_c2_c3 ] <= 942275.0
  SyncA_c2_c1_c4: 50000.0 o_2 + 1000000.0 x_c2_c1 - tauD_c1 - 20625.0 z_c2_c4 + [ tauS_c4 * z_c2_c4 ] <= 942275.0
  SyncA_c2_c1_dN: 50000.0 o_2 + 1000000.0 x_c2_c1 - tauD_c1 - 34000.0 z_c2_dN + [ tauS_dN * z_c2_dN ] <= 942275.0
  SyncA_c2_c3_c1: 50000.0 o_2 + 1000000.0 x_c2_c3 - tauD_c3 - 57725.0 z_c2_c1 + [ tauS_c1 * z_c2_c1 ] <= 958100.0
  SyncA_c2_c3_c3: 50000.0 o_2 + 1000000.0 x_c2_c3 - tauD_c3 - 41900.0 z_c2_c3 + [ tauS_c3 * z_c2_c3 ] <= 958100.0
  SyncA_c2_c3_c4: 50000.0 o_2 + 1000000.0 x_c2_c3 - tauD_c3 - 20625.0 z_c2_c4 + [ tauS_c4 * z_c2_c4 ] <= 958100.0
  SyncA_c2_c3_dN: 50000.0 o_2 + 1000000.0 x_c2_c3 - tauD_c3 - 34000.0 z_c2_dN + [ tauS_dN * z_c2_dN ] <= 958100.0
  SyncA_c2_c4_c1: 50000.0 o_2 + 1000000.0 x_c2_c4 - tauD_c4 - 57725.0 z_c2_c1 + [ tauS_c1 * z_c2_c1 ] <= 979375.0
  SyncA_c2_c4_c3: 50000.0 o_2 + 1000000.0 x_c2_c4 - tauD_c4 - 41900.0 z_c2_c3 + [ tauS_c3 * z_c2_c3 ] <= 979375.0
  SyncA_c2_c4_c4: 50000.0 o_2 + 1000000.0 x_c2_c4 - tauD_c4 - 20625.0 z_c2_c4 + [ tauS_c4 * z_c2_c4 ] <= 979375.0
  SyncA_c2_c4_dN: 50000.0 o_2 + 1000000.0 x_c2_c4 - tauD_c4 - 34000.0 z_c2_dN + [ tauS_dN * z_c2_dN ] <= 979375.0
  SyncA_c2_dN_c1: 50000.0 o_2 + 1000000.0 x_c2_dN - tauD_dN - 57725.0 z_c2_c1 + [ tauS_c1 * z_c2_c1 ] <= 966000.0
  SyncA_c2_dN_c3: 50000.0 o_2 + 1000000.0 x_c2_dN - tauD_dN - 41900.0 z_c2_c3 + [ tauS_c3 * z_c2_c3 ] <= 966000.0
  SyncA_c2_dN_c4: 50000.0 o_2 + 1000000.0 x_c2_dN - tauD_dN - 20625.0 z_c2_c4 + [ tauS_c4 * z_c2_c4 ] <= 966000.0
  SyncA_c2_dN_dN: 50000.0 o_2 + 1000000.0 x_c2_dN - tauD_dN - 34000.0 z_c2_dN + [ tauS_dN * z_c2_dN ] <= 966000.0
  SyncA_c3_c1_c1: 60000.0 o_3 + 1000000.0 x_c3_c1 - tauD_c1 - 88675.0 z_c3_c1 + [ tauS_c1 * z_c3_c1 ] <= 911325.0
  SyncA_c3_c1_c2: 60000.0 o_3 + 1000000.0 x_c3_c1 - tauD_c1 - 41900.0 z_c3_c2 + [ tauS_c2 * z_c3_c2 ] <= 911325.0
  SyncA_c3_c1_c4: 60000.0 o_3 + 1000000.0 x_c3_c1 - tauD_c1 - 55500.0 z_c3_c4 + [ tauS_c4 * z_c3_c4 ] <= 911325.0
  SyncA_c3_c1_dN: 60000.0 o_3 + 1000000.0 x_c3_c1 - tauD_c1 - 74925.0 z_c3_dN + [ tauS_dN * z_c3_dN ] <= 911325.0
  SyncA_c3_c2_c1: 60000.0 o_3 + 1000000.0 x_c3_c2 - tauD_c2 - 88675.0 z_c3_c1 + [ tauS_c1 * z_c3_c1 ] <= 958100.0
  SyncA_c3_c2_c2: 60000.0 o_3 + 1000000.0 x_c3_c2 - tauD_c2 - 41900.0 z_c3_c2 + [ tauS_c2 * z_c3_c2 ] <= 958100.0
  SyncA_c3_c2_c4: 60000.0 o_3 + 1000000.0 x_c3_c2 - tauD_c2 - 55500.0 z_c3_c4 + [ tauS_c4 * z_c3_c4 ] <= 958100.0
  SyncA_c3_c2_dN: 60000.0 o_3 + 1000000.0 x_c3_c2 - tauD_c2 - 74925.0 z_c3_dN + [ tauS_dN * z_c3_dN ] <= 958100.0
  SyncA_c3_c4_c1: 60000.0 o_3 + 1000000.0 x_c3_c4 - tauD_c4 - 88675.0 z_c3_c1 + [ tauS_c1 * z_c3_c1 ] <= 944500.0
  SyncA_c3_c4_c2: 60000.0 o_3 + 1000000.0 x_c3_c4 - tauD_c4 - 41900.0 z_c3_c2 + [ tauS_c2 * z_c3_c2 ] <= 944500.0
  SyncA_c3_c4_c4: 60000.0 o_3 + 1000000.0 x_c3_c4 - tauD_c4 - 55500.0 z_c3_c4 + [ tauS_c4 * z_c3_c4 ] <= 944500.0
  SyncA_c3_c4_dN: 60000.0 o_3 + 1000000.0 x_c3_c4 - tauD_c4 - 74925.0 z_c3_dN + [ tauS_dN * z_c3_dN ] <= 944500.0
  SyncA_c3_dN_c1: 60000.0 o_3 + 1000000.0 x_c3_dN - tauD_dN - 88675.0 z_c3_c1 + [ tauS_c1 * z_c3_c1 ] <= 925075.0
  SyncA_c3_dN_c2: 60000.0 o_3 + 1000000.0 x_c3_dN - tauD_dN - 41900.0 z_c3_c2 + [ tauS_c2 * z_c3_c2 ] <= 925075.0
  SyncA_c3_dN_c4: 60000.0 o_3 + 1000000.0 x_c3_dN - tauD_dN - 55500.0 z_c3_c4 + [ tauS_c4 * z_c3_c4 ] <= 925075.0
  SyncA_c3_dN_dN: 60000.0 o_3 + 1000000.0 x_c3_dN - tauD_dN - 74925.0 z_c3_dN + [ tauS_dN * z_c3_dN ] <= 925075.0
  SyncA_c4_c1_c1: 50000.0 o_4 + 1000000.0 x_c4_c1 - tauD_c1 - 37175.0 z_c4_c1 + [ tauS_c1 * z_c4_c1 ] <= 962825.0
  SyncA_c4_c1_c2: 50000.0 o_4 + 1000000.0 x_c4_c1 - tauD_c1 - 20625.0 z_c4_c2 + [ tauS_c2 * z_c4_c2 ] <= 962825.0
  SyncA_c4_c1_c3: 50000.0 o_4 + 1000000.0 x_c4_c1 - tauD_c1 - 55500.0 z_c4_c3 + [ tauS_c3 * z_c4_c3 ] <= 962825.0
  SyncA_c4_c1_dN: 50000.0 o_4 + 1000000.0 x_c4_c1 - tauD_c1 - 22500.0 z_c4_dN + [ tauS_dN * z_c4_dN ] <= 962825.0
  SyncA_c4_c2_c1: 50000.0 o_4 + 1000000.0 x_c4_c2 - tauD_c2 - 37175.0 z_c4_c1 + [ tauS_c1 * z_c4_c1 ] <= 979375.0
  SyncA_c4_c2_c2: 50000.0 o_4 + 1000000.0 x_c4_c2 - tauD_c2 - 20625.0 z_c4_c2 + [ tauS_c2 * z_c4_c2 ] <= 979375.0
  SyncA_c4_c2_c3: 50000.0 o_4 + 1000000.0 x_c4_c2 - tauD_c2 - 55500.0 z_c4_c3 + [ tauS_c3 * z_c4_c3 ] <= 979375.0
  SyncA_c4_c2_dN: 50000.0 o_4 + 1000000.0 x_c4_c2 - tauD_c2 - 22500.0 z_c4_dN + [ tauS_dN * z_c4_dN ] <= 979375.0
  SyncA_c4_c3_c1: 50000.0 o_4 + 1000000.0 x_c4_c3 - tauD_c3 - 37175.0 z_c4_c1 + [ tauS_c1 * z_c4_c1 ] <= 944500.0
  SyncA_c4_c3_c2: 50000.0 o_4 + 1000000.0 x_c4_c3 - tauD_c3 - 20625.0 z_c4_c2 + [ tauS_c2 * z_c4_c2 ] <= 944500.0
  SyncA_c4_c3_c3: 50000.0 o_4 + 1000000.0 x_c4_c3 - tauD_c3 - 55500.0 z_c4_c3 + [ tauS_c3 * z_c4_c3 ] <= 944500.0
  SyncA_c4_c3_dN: 50000.0 o_4 + 1000000.0 x_c4_c3 - tauD_c3 - 22500.0 z_c4_dN + [ tauS_dN * z_c4_dN ] <= 944500.0
  SyncA_c4_dN_c1: 50000.0 o_4 + 1000000.0 x_c4_dN - tauD_dN - 37175.0 z_c4_c1 + [ tauS_c1 * z_c4_c1 ] <= 977500.0
  SyncA_c4_dN_c2: 50000.0 o_4 + 1000000.0 x_c4_dN - tauD_dN - 20625.0 z_c4_c2 + [ tauS_c2 * z_c4_c2 ] <= 977500.0
  SyncA_c4_dN_c3: 50000.0 o_4 + 1000000.0 x_c4_dN - tauD_dN - 55500.0 z_c4_c3 + [ tauS_c3 * z_c4_c3 ] <= 977500.0
  SyncA_c4_dN_dN: 50000.0 o_4 + 1000000.0 x_c4_dN - tauD_dN - 22500.0 z_c4_dN + [ tauS_dN * z_c4_dN ] <= 977500.0
  SVFirst_c1_c2: tauS_c2 - tauD_c1 + 30000.0 o_1 - 1000000.0 z_c1_c2 >= -832275.0
  SVFirst_c1_c3: tauS_c3 - tauD_c1 + 30000.0 o_1 - 1000000.0 z_c1_c3 >= -801325.0
  SVFirst_c1_c4: tauS_c4 - tauD_c1 + 30000.0 o_1 - 1000000.0 z_c1_c4 >= -852825.0
  SVFirst_c1_dN:  tauS_dN - tauD_c1 + 30000.0 o_1 - 1000000.0 z_c1_dN >= -853600.0
  SVFirst_c2_c1: tauS_c1 - tauD_c2 + 50000.0 o_2 - 1000000.0 z_c2_c1 >= -812275.0
  SVFirst_c2_c3: tauS_c3 - tauD_c2 + 50000.0 o_2 - 1000000.0 z_c2_c3 >= -828100.0
  SVFirst_c2_c4: tauS_c4 - tauD_c2 + 50000.0 o_2 - 1000000.0 z_c2_c4 >= -849375.0
  SVFirst_c2_dN:  tauS_dN - tauD_c2 + 50000.0 o_2 - 1000000.0 z_c2_dN >= -836000.0
  SVFirst_c3_c1: tauS_c1 - tauD_c3 + 60000.0 o_3 - 1000000.0 z_c3_c1 >= -771325.0
  SVFirst_c3_c2: tauS_c2 - tauD_c3 + 60000.0 o_3 - 1000000.0 z_c3_c2 >= -818100.0
  SVFirst_c3_c4: tauS_c4 - tauD_c3 + 60000.0 o_3 - 1000000.0 z_c3_c4 >= -804500.0
  SVFirst_c3_dN:  tauS_dN - tauD_c3 + 60000.0 o_3 - 1000000.0 z_c3_dN >= -785075.0
  SVFirst_c4_c1: tauS_c1 - tauD_c4 + 50000.0 o_4 - 1000000.0 z_c4_c1 >= -832825.0
  SVFirst_c4_c2: tauS_c2 - tauD_c4 + 50000.0 o_4 - 1000000.0 z_c4_c2 >= -849375.0
  SVFirst_c4_c3: tauS_c3 - tauD_c4 + 50000.0 o_4 - 1000000.0 z_c4_c3 >= -814500.0
  SVFirst_c4_dN:  tauS_dN - tauD_c4 + 50000.0 o_4 - 1000000.0 z_c4_dN >= -847500.0
  Precedence_Swap_c1:  p_1 - z_d0_c1 - z_c2_c1 - z_c3_c1 - z_c4_c1 = 0
  Precedence_Swap_c2:  p_2 - z_d0_c2 - z_c1_c2 - z_c3_c2 - z_c4_c2 = 0
  Precedence_Swap_c3:  p_3 - z_d0_c3 - z_c1_c3 - z_c2_c3 - z_c4_c3 = 0
  Precedence_Swap_c4:  p_4 - z_d0_c4 - z_c1_c4 - z_c2_c4 - z_c3_c4 = 0
  Order_c1:  o_1 - p_1 <= 0
  Order_c2:  o_2 - p_2 <= 0
  Order_c3:  o_3 - p_3 <= 0
  Order_c4:  o_4 - p_4 <= 0
  WorkingTimeS_c1:  tauS_c1 <= 883600.0
  WorkingTimeS_c2:  tauS_c2 <= 886000.0
  WorkingTimeS_c3:  tauS_c3 <= 845075.0
  WorkingTimeS_c4:  tauS_c4 <= 897500.0
  Freight_c1_c2:  k_c2 - k_c1 + 1000000.0 x_c1_c2 <= 970000.0
  Freight_c1_c3:  k_c3 - k_c1 + 1000000.0 x_c1_c3 <= 970000.0
  Freight_c1_c4:  k_c4 - k_c1 + 1000000.0 x_c1_c4 <= 970000.0
  Freight_c1_dN:  k_dN - k_c1 + 1000000.0 x_c1_dN <= 970000.0
  Freight_c2_c1:  k_c1 - k_c2 + 1000000.0 x_c2_c1 <= 950000.0
  Freight_c2_c3:  k_c3 - k_c2 + 1000000.0 x_c2_c3 <= 950000.0
  Freight_c2_c4:  k_c4 - k_c2 + 1000000.0 x_c2_c4 <= 950000.0
  Freight_c2_dN:  k_dN - k_c2 + 1000000.0 x_c2_dN <= 950000.0
  Freight_c3_c1:  k_c1 - k_c3 + 1000000.0 x_c3_c1 <= 990000.0
  Freight_c3_c2:  k_c2 - k_c3 + 1000000.0 x_c3_c2 <= 990000.0
  Freight_c3_c4:  k_c4 - k_c3 + 1000000.0 x_c3_c4 <= 990000.0
  Freight_c3_dN:  k_dN - k_c3 + 1000000.0 x_c3_dN <= 990000.0
  Freight_c4_c1:  k_c1 - k_c4 + 1000000.0 x_c4_c1 <= 950000.0
  Freight_c4_c2:  k_c2 - k_c4 + 1000000.0 x_c4_c2 <= 950000.0
  Freight_c4_c3:  k_c3 - k_c4 + 1000000.0 x_c4_c3 <= 950000.0
  Freight_c4_dN:  k_dN - k_c4 + 1000000.0 x_c4_dN <= 950000.0
  FuelDV_d0_c1:  phi_c1 - phi_d0 + 69741.0 x_d0_c1 <= 60000.0
  FuelDV_d0_c2:  phi_c2 - phi_d0 + 69098.0 x_d0_c2 <= 60000.0
  FuelDV_d0_c3:  phi_c3 - phi_d0 + 80050.0 x_d0_c3 <= 60000.0
  FuelDV_d0_c4:  phi_c4 - phi_d0 + 66021.0 x_d0_c4 <= 60000.0
  FuelDV_c1_c2:  phi_c2 - phi_c1 + 75447.0 x_c1_c2 <= 60000.0
  FuelDV_c1_c3:  phi_c3 - phi_c1 + 83729.0 x_c1_c3 <= 60000.0
  FuelDV_c1_c4:  phi_c4 - phi_c1 + 69948.0 x_c1_c4 <= 60000.0
  FuelDV_c1_dN:  phi_dN - phi_c1 + 69741.0 x_c1_dN <= 60000.0
  FuelDV_c2_c1:  phi_c1 - phi_c2 + 75447.0 x_c2_c1 <= 60000.0
  FuelDV_c2_c3:  phi_c3 - phi_c2 + 71212.0 x_c2_c3 <= 60000.0
  FuelDV_c2_c4:  phi_c4 - phi_c2 + 65519.0 x_c2_c4 <= 60000.0
  FuelDV_c2_dN:  phi_dN - phi_c2 + 69098.0 x_c2_dN <= 60000.0
  FuelDV_c3_c1:  phi_c1 - phi_c3 + 83729.0 x_c3_c1 <= 60000.0
  FuelDV_c3_c2:  phi_c2 - phi_c3 + 71212.0 x_c3_c2 <= 60000.0
  FuelDV_c3_c4:  phi_c4 - phi_c3 + 74852.0 x_c3_c4 <= 60000.0
  FuelDV_c3_dN:  phi_dN - phi_c3 + 80050.0 x_c3_dN <= 60000.0
  FuelDV_c4_c1:  phi_c1 - phi_c4 + 69948.0 x_c4_c1 <= 60000.0
  FuelDV_c4_c2:  phi_c2 - phi_c4 + 65519.0 x_c4_c2 <= 60000.0
  FuelDV_c4_c3:  phi_c3 - phi_c4 + 74852.0 x_c4_c3 <= 60000.0
  FuelDV_c4_dN:  phi_dN - phi_c4 + 66021.0 x_c4_dN <= 60000.0
  WorkingTimeD_c1:  tauD_c1 + 80000.0 p_1 <= 933600.0
  WorkingTimeD_c2:  tauD_c2 + 80000.0 p_2 <= 916000.0
  WorkingTimeD_c3:  tauD_c3 + 80000.0 p_3 <= 865075.0
  WorkingTimeD_c4:  tauD_c4 + 80000.0 p_4 <= 927500.0
Bounds
0 <= k_c1 <= 1000000.0
0 <= k_c2 <= 1000000.0
0 <= k_c3 <= 1000000.0
0 <= k_c4 <= 1000000.0
0 <= k_dN <= 1000000.0
0 <= phi_c1 <= 60000.0
0 <= phi_c2 <= 60000.0
0 <= phi_c3 <= 60000.0
0 <= phi_c4 <= 60000.0
0 <= phi_d0 <= 60000.0
0 <= phi_dN <= 60000.0
0 <= tauD_c1 <= 1000000.0
0 <= tauD_c2 <= 1000000.0
0 <= tauD_c3 <= 1000000.0
0 <= tauD_c4 <= 1000000.0
0 <= tauD_d0 <= 1000000.0
0 <= tauD_dN <= 1000000.0
0 <= tauS_c1 <= 1000000.0
0 <= tauS_c2 <= 1000000.0
0 <= tauS_c3 <= 1000000.0
0 <= tauS_c4 <= 1000000.0
0 <= tauS_d0 <= 1000000.0
0 <= tauS_dN <= 1000000.0
Generals
  k_c1
  k_c2
  k_c3
  k_c4
  k_dN
  phi_c1
  phi_c2
  phi_c3
  phi_c4
  phi_d0
  phi_dN
  tauD_c1
  tauD_c2
  tauD_c3
  tauD_c4
  tauD_d0
  tauD_dN
  tauS_c1
  tauS_c2
  tauS_c3
  tauS_c4
  tauS_d0
  tauS_dN
Binary
  o_1
  o_2
  o_3
  o_4
  p_1
  p_2
  p_3
  p_4
  x_c1_c2
  x_c1_c3
  x_c1_c4
  x_c1_dN
  x_c2_c1
  x_c2_c3
  x_c2_c4
  x_c2_dN
  x_c3_c1
  x_c3_c2
  x_c3_c4
  x_c3_dN
  x_c4_c1
  x_c4_c2
  x_c4_c3
  x_c4_dN
  x_d0_c1
  x_d0_c2
  x_d0_c3
  x_d0_c4
  z_c1_c2
  z_c1_c3
  z_c1_c4
  z_c1_dN
  z_c2_c1
  z_c2_c3
  z_c2_c4
  z_c2_dN
  z_c3_c1
  z_c3_c2
  z_c3_c4
  z_c3_dN
  z_c4_c1
  z_c4_c2
  z_c4_c3
  z_c4_dN
  z_d0_c1
  z_d0_c2
  z_d0_c3
  z_d0_c4
End
