VRPTWMS/instances/mip/fuel/Comparison/N4-C_DV100-C_SV30_F6_7_No_1.log

Gurobi 6.0.4 (win64) logging started 06/21/15 19:05:31

Read LP format model from file C:\MT\repository\VRPTWMS\instances\mip\fuel\N4-C_DV100-C_SV30_F6_7_No_1.lp
Reading time = 0.00 seconds
(null): 129 rows, 72 columns, 447 nonzeros
Optimize a model with 129 rows, 72 columns and 447 nonzeros
Model has 64 quadratic constraints
Coefficient statistics:
  Matrix range    [1e+00, 1e+06]
  Objective range [8e+04, 1e+07]
  Bounds range    [1e+00, 1e+06]
  RHS range       [1e+00, 1e+06]
Presolve removed 17 rows and 9 columns
Presolve time: 0.01s
Presolved: 228 rows, 121 columns, 1043 nonzeros
Variable types: 58 continuous, 63 integer (45 binary)
Found heuristic solution: objective 4.134260e+07

Root relaxation: objective 3.424026e+06, 42 iterations, 0.00 seconds

    Nodes    |    Current Node    |     Objective Bounds      |     Work
 Expl Unexpl |  Obj  Depth IntInf | Incumbent    BestBd   Gap | It/Node Time

     0     0 3424025.90    0   18 4.1343e+07 3424025.90  91.7%     -    0s
     0     0 1.0844e+07    0   11 4.1343e+07 1.0844e+07  73.8%     -    0s
H    0     0                    2.098760e+07 1.0844e+07  48.3%     -    0s
*    0     0               0    1.085610e+07 1.0856e+07  0.00%     -    0s

Cutting planes:
  Implied bound: 1
  Clique: 1
  MIR: 2
  GUB cover: 2

Explored 0 nodes (84 simplex iterations) in 0.02 seconds
Thread count was 2 (of 4 available processors)

Optimal solution found (tolerance 1.00e-04)
Best objective 1.085610000000e+07, best bound 1.085610000000e+07, gap 0.0%
k_c1	30000.0
k_c2	80000.0
k_c3	90000.0
k_c4	140000.0
k_dN	-0.0
o_1	-0.0
o_2	0.0
o_3	-0.0
o_4	-0.0
p_1	-0.0
p_2	0.0
p_3	-0.0
p_4	-0.0
phi_c1	9741.000000000015
phi_c2	25188.000000000015
phi_c3	39127.0
phi_c4	53979.0
phi_d0	60000.0
phi_dN	-0.0
tauD_c1	650000.0
tauD_c2	500000.0
tauD_c3	250000.0
tauD_c4	144500.0
tauD_d0	-0.0
tauD_dN	1000000.0
tauS_c1	-0.0
tauS_c2	-0.0
tauS_c3	-0.0
tauS_c4	-0.0
tauS_d0	-0.0
tauS_dN	-0.0
x_c1_dN	1.0
x_c2_c1	1.0
x_c3_c2	1.0
x_c4_c3	1.0
x_d0_c4	1.0
